LibMLKEM/why3-cvc5/mlkem.adb_801_39_range_check_1.smt2
;; produced by cvc5.drv ;;
(set-logic ALL)
(set-info :smt-lib-version 2.6)
;;; generated by SMT-LIB2 driver
;;; SMT-LIB2 driver: bit-vectors, common part
;;; SMT-LIB2: integer arithmetic
;; "pow2"
(declare-fun pow2 (Int) Int)

(declare-const two_power_size_minus_one Int)

;; "two_power_size_minus_one_val"
(assert (= two_power_size_minus_one (pow2 (- 8 1))))

;; "min"
(define-fun min ((x Int) (y Int)) Int
  (ite (<= x y) x y))

;; "max"
(define-fun max ((x Int) (y Int)) Int
  (ite (<= x y) y x))

;; "Min_r"
(assert (forall ((x Int) (y Int)) (=> (<= y x) (= (min x y) y))))

;; "Max_l"
(assert (forall ((x Int) (y Int)) (=> (<= y x) (= (max x y) x))))

;; "Min_comm"
(assert (forall ((x Int) (y Int)) (= (min x y) (min y x))))

;; "Max_comm"
(assert (forall ((x Int) (y Int)) (= (max x y) (max y x))))

;; "Min_assoc"
(assert
  (forall ((x Int) (y Int) (z Int)) (= (min (min x y) z) (min x (min y z)))))

;; "Max_assoc"
(assert
  (forall ((x Int) (y Int) (z Int)) (= (max (max x y) z) (max x (max y z)))))

(declare-const two_power_size_minus_one1 Int)

;; "two_power_size_minus_one_val"
(assert (= two_power_size_minus_one1 (pow2 (- 16 1))))

(declare-sort udu 0)

;; "in_range"
(define-fun in_range ((x (_ BitVec 16))) Bool
  (and (bvule #x0000 x) (bvule x #x03FF)))

;; "to_rep"
(declare-fun to_rep (udu) (_ BitVec 16))

;; "of_rep"
(declare-fun of_rep ((_ BitVec 16)) udu)

;; "inversion_axiom"
(assert
  (forall ((x udu)) (! (= (of_rep (to_rep x)) x) :pattern ((to_rep x)) )))

;; "range_axiom"
(assert (forall ((x udu)) (! (in_range (to_rep x)) :pattern ((to_rep x)) )))

;; "coerce_axiom"
(assert
  (forall ((x (_ BitVec 16)))
    (! (let ((y (bvurem x #x0400)))
         (=> (in_range y) (= (to_rep (of_rep x)) y))) :pattern ((to_rep
                                                                  (of_rep x))) )))

(declare-sort map1 0)

;; "has_bounds"
(declare-fun has_bounds (map1
  Int
  Int) Bool)

;; "get"
(declare-fun get (map1
  Int) udu)

(declare-const f map1)

(declare-sort byte 0)

;; "to_rep"
(declare-fun to_rep1 (byte) (_ BitVec 8))

;; "of_rep"
(declare-fun of_rep1 ((_ BitVec 8)) byte)

;; "inversion_axiom"
(assert
  (forall ((x byte)) (! (= (of_rep1 (to_rep1 x)) x) :pattern ((to_rep1 x)) )))

;; "range_axiom"
(assert true)

;; "coerce_axiom"
(assert
  (forall ((x (_ BitVec 8)))
    (! (= (to_rep1 (of_rep1 x)) x) :pattern ((to_rep1 (of_rep1 x))) )))

(declare-sort map2 0)

;; "has_bounds"
(declare-fun has_bounds1 (map2
  Int
  Int) Bool)

(declare-sort u8_bit 0)

;; "in_range"
(define-fun in_range1 ((x (_ BitVec 8))) Bool
  (and (bvule #x00 x) (bvule x #x01)))

;; "to_rep"
(declare-fun to_rep2 (u8_bit) (_ BitVec 8))

;; "of_rep"
(declare-fun of_rep2 ((_ BitVec 8)) u8_bit)

;; "inversion_axiom"
(assert
  (forall ((x u8_bit))
    (! (= (of_rep2 (to_rep2 x)) x) :pattern ((to_rep2 x)) )))

;; "range_axiom"
(assert
  (forall ((x u8_bit)) (! (in_range1 (to_rep2 x)) :pattern ((to_rep2 x)) )))

;; "coerce_axiom"
(assert
  (forall ((x (_ BitVec 8)))
    (! (=> (in_range1 x) (= (to_rep2 (of_rep2 x)) x)) :pattern ((to_rep2
                                                                  (of_rep2 x))) )))

(declare-sort map3 0)

;; "has_bounds"
(declare-fun has_bounds2 (map3
  Int
  Int) Bool)

;; "get"
(declare-fun get1 (map3
  Int) u8_bit)

;; "mlkem__byteencodedu__b__aggregate_def"
(declare-fun mlkem__byteencodedu__b__aggregate_def ((_ BitVec 8)) map3)

;; Goal "def'vc"
;; File "mlkem.adb", line 785, characters 0-0
(assert
  (not
  (forall ((r map2) (a (_ BitVec 16)) (this_bit (_ BitVec 16)))
    (=>
      (has_bounds f 0 255)
      (=>
        (has_bounds1 r 0 319)
        (forall ((temp___4203 map3))
          (=>
            (and
              (and
                (has_bounds2 temp___4203 0 2559)
                (forall ((temp___4202 Int))
                  (! (=>
                       (and (<= 0 temp___4202) (<= temp___4202 2559))
                       (= (to_rep2 (get1 temp___4203 temp___4202)) #x00)) :pattern (
                  (get1
                    temp___4203
                    temp___4202)) )))
              (= temp___4203 (mlkem__byteencodedu__b__aggregate_def #x00)))
            (forall ((b map3))
              (=>
                (= b temp___4203)
                (=>
                  (has_bounds2 b 0 2559)
                  (=>
                    (in_range a)
                    (=>
                      (in_range this_bit)
                      (forall ((i Int))
                        (=>
                          (= i 0)
                          (=>
                            (= (and (ite (<= 0 i) true false) (ite (<= i 255)
                                                                true
                                                                false)) true)
                            (forall ((b1 map3) (a1 (_ BitVec 16)) (this_bit1 (_ BitVec 16)) (i1 Int))
                              (=>
                                (= (and (ite (and
                                               (and
                                                 (has_bounds2 b1 0 2559)
                                                 (in_range a1))
                                               (in_range this_bit1))
                                          true
                                          false) (ite (and
                                                        (<= 0 i1)
                                                        (<= i1 255))
                                                   true
                                                   false)) true)
                                (forall ((o (_ BitVec 16)))
                                  (=>
                                    (= (to_rep (get f i1)) o)
                                    (forall ((a2 (_ BitVec 16)))
                                      (=>
                                        (= a2 o)
                                        (forall ((j Int))
                                          (=>
                                            (= j 0)
                                            (=>
                                              (= (and (ite (<= 0 j)
                                                        true
                                                        false) (ite (<= j 9)
                                                                 true
                                                                 false)) true)
                                              (forall ((b2 map3) (a3 (_ BitVec 16)) (this_bit2 (_ BitVec 16)) (j1 Int))
                                                (=>
                                                  (= (and (ite (and
                                                                 (and
                                                                   (has_bounds2
                                                                    b2
                                                                    0
                                                                    2559)
                                                                   (in_range
                                                                    a3))
                                                                 (in_range
                                                                   this_bit2))
                                                            true
                                                            false) (ite 
                                                                    (and
                                                                    (<= 0 j1)
                                                                    (<= j1 9))
                                                                    true
                                                                    false)) true)
                                                  (forall ((this_bit3 (_ BitVec 16)))
                                                    (=>
                                                      (= this_bit3 (bvurem a3 #x0002))
                                                      (and
                                                        (bvule ((_ zero_extend 8) #x00) this_bit3)
                                                        (bvule this_bit3 ((_ zero_extend 8) #x01)))))))))))))))))))))))))))))))

(check-sat)
